c 1 x1
c 2 x3
c 3 x4
c 4 x5
c 5 x6
c 6 x7
c 7 x9
c 8 __spec__0
c 9 __spec__1
c 10 __spec__2
c 11 __spec__3
c 12 __spec__4
c 13 __spec__5
c 14 __spec__6
c 15 __spec__7
c 16 __spec__8
c 17 __spec__9
c 18 __spec__10
c 19 __spec__11
c 20 __spec__12
c 21 __spec__13
c 22 __spec__14
c 23 __spec__15
c 24 __spec__16
c 25 __spec__17
c 26 __spec__18
c MAIN 27 __spec__19
p cnf 27 55
-8 -2
2 8
-9 8 5
-8 9
-5 9
-10 -5
5 10
-11 2 10
-2 11
-10 11
11 -12
9 -12
-11 -9 12
-13 -4
4 13
-14 -3
3 14
-15 14 13
-14 15
-13 15
-16 7 7
-7 16
-7 16
16 -17
15 -17
-16 -15 17
-18 17 12
-17 18
-12 18
-19 3 7
-3 19
-7 19
-20 6 1
-6 20
-1 20
20 -21
19 -21
-20 -19 21
-22 2 7
-2 22
-7 22
-23 -3
3 23
-24 1 23
-1 24
-23 24
24 -25
22 -25
-24 -22 25
-26 25 21
-25 26
-21 26
26 -27
18 -27
-26 -18 27
